
  &control
    prefix='diamond',
    calculation='scf',
    outdir = '/home/sam/Documents/espresso-4.3.2/diac/scratch' 
    pseudo_dir = '/home/sam/Documents/espresso-4.3.2/pseudo/' 
    tprnfor=.true.
 /
 &system    
    ibrav=  2, 
    celldm(1) =6.74,
    !celldm(1) =, 
    nat=  2, ntyp= 1,
    ecutwfc = 50,
    !ecutwfc = 140,
 /
 &electrons
 /
ATOMIC_SPECIES
C  12.0107  C.pz-kjpaw.UPF
ATOMIC_POSITIONS
 C 0.00 0.00 0.05 
 C 0.25 0.25 0.25 
K_POINTS {automatic}
4 4 4 0 0 0
