#si.lam
label loop_lattconst
variable x loop 10000
variable y equal 5.300+0.0001*${x}
clear
units metal
atom_style atomic

lattice diamond $y

region box block 0 3 0 3 0 3
create_box 1 box
create_atoms 1 box
pair_style sw
pair_coeff * * Si.sw Si
mass 1 28
neighbor 1.0 bin
neigh_modify every 1 delay 5 check yes


timestep 0.005
thermo 10
thermo_style custom step pe ke etotal press vol
#dump 1 all cfg 1 Si_$x.cfg id type xs ys zs
#fix 1 all nvt temp 300.0 300.0 10.0
run 0

next x
#jump si.lam
jump si.lam loop_lattconst
