


  &control
    prefix='diamond',
    calculation='scf',
    outdir = '/media/2B7B180438B2F39D_/Scratch/' 
    pseudo_dir = '/home/mullspace/Documents/espresso-4.3.2/pseudo/' 
    tprnfor=.true.
 /
 &system    
    ibrav=  2, 
    !celldm(1) =6.74,
    celldm(1) =6.88, 
    nat=  2, ntyp= 1,
    !ecutwfc = ,
    ecutwfc = 140,
 /
 &electrons
 /
ATOMIC_SPECIES
C  12.0107  C.pz-kjpaw.UPF
ATOMIC_POSITIONS
 C 0.00 0.00 0.05 
 C 0.25 0.25 0.25 
K_POINTS {automatic}
8 8 8 0 0 0
