 &inputpp
    prefix  = 'silicon'
    outdir='./out'
    filband = 'bands.dat'
 /

