 &control
    prefix='silicon',
    pseudo_dir='/u/course/mse1022/shared/Softwares/espresso-4.3.2/pseudo'
    outdir = './out',
 /
 &system    
    ibrav=  2, celldm(1) =10.2, nat=  2, ntyp= 1,
    ecutwfc = 12.0, 
 /
 &electrons
 /
ATOMIC_SPECIES
 Si  28.086  Si.pz-vbc.UPF
ATOMIC_POSITIONS
 Si 0.00 0.00 0.00 
 Si 0.25 0.25 0.25 
K_POINTS
   2
   0.25 0.25 0.75 3.0
   0.25 0.25 0.25 1.0
